certificates/rado_a3_c95_N31.cnf
c Rad2 upper bound instance: x1 + 3*x2 - x3 = 95, interval [1,31]
p cnf 31 310
1 3 31 0
-1 -3 -31 0
2 4 31 0
-2 -4 -31 0
3 5 31 0
-3 -5 -31 0
1 6 30 0
-1 -6 -30 0
4 6 31 0
-4 -6 -31 0
2 7 30 0
-2 -7 -30 0
5 7 31 0
-5 -7 -31 0
3 8 30 0
-3 -8 -30 0
6 8 31 0
-6 -8 -31 0
1 9 29 0
-1 -9 -29 0
4 9 30 0
-4 -9 -30 0
7 9 31 0
-7 -9 -31 0
2 10 29 0
-2 -10 -29 0
5 10 30 0
-5 -10 -30 0
8 10 31 0
-8 -10 -31 0
3 11 29 0
-3 -11 -29 0
6 11 30 0
-6 -11 -30 0
9 11 31 0
-9 -11 -31 0
1 12 28 0
-1 -12 -28 0
4 12 29 0
-4 -12 -29 0
7 12 30 0
-7 -12 -30 0
10 12 31 0
-10 -12 -31 0
2 13 28 0
-2 -13 -28 0
5 13 29 0
-5 -13 -29 0
8 13 30 0
-8 -13 -30 0
11 13 31 0
-11 -13 -31 0
3 14 28 0
-3 -14 -28 0
6 14 29 0
-6 -14 -29 0
9 14 30 0
-9 -14 -30 0
12 14 31 0
-12 -14 -31 0
1 15 27 0
-1 -15 -27 0
4 15 28 0
-4 -15 -28 0
7 15 29 0
-7 -15 -29 0
10 15 30 0
-10 -15 -30 0
13 15 31 0
-13 -15 -31 0
2 16 27 0
-2 -16 -27 0
5 16 28 0
-5 -16 -28 0
8 16 29 0
-8 -16 -29 0
11 16 30 0
-11 -16 -30 0
14 16 31 0
-14 -16 -31 0
3 17 27 0
-3 -17 -27 0
6 17 28 0
-6 -17 -28 0
9 17 29 0
-9 -17 -29 0
12 17 30 0
-12 -17 -30 0
15 17 31 0
-15 -17 -31 0
1 18 26 0
-1 -18 -26 0
4 18 27 0
-4 -18 -27 0
7 18 28 0
-7 -18 -28 0
10 18 29 0
-10 -18 -29 0
13 18 30 0
-13 -18 -30 0
16 18 31 0
-16 -18 -31 0
2 19 26 0
-2 -19 -26 0
5 19 27 0
-5 -19 -27 0
8 19 28 0
-8 -19 -28 0
11 19 29 0
-11 -19 -29 0
14 19 30 0
-14 -19 -30 0
17 19 31 0
-17 -19 -31 0
3 20 26 0
-3 -20 -26 0
6 20 27 0
-6 -20 -27 0
9 20 28 0
-9 -20 -28 0
12 20 29 0
-12 -20 -29 0
15 20 30 0
-15 -20 -30 0
18 20 31 0
-18 -20 -31 0
1 21 25 0
-1 -21 -25 0
4 21 26 0
-4 -21 -26 0
7 21 27 0
-7 -21 -27 0
10 21 28 0
-10 -21 -28 0
13 21 29 0
-13 -21 -29 0
16 21 30 0
-16 -21 -30 0
19 21 31 0
-19 -21 -31 0
2 22 25 0
-2 -22 -25 0
5 22 26 0
-5 -22 -26 0
8 22 27 0
-8 -22 -27 0
11 22 28 0
-11 -22 -28 0
14 22 29 0
-14 -22 -29 0
17 22 30 0
-17 -22 -30 0
20 22 31 0
-20 -22 -31 0
3 23 25 0
-3 -23 -25 0
6 23 26 0
-6 -23 -26 0
9 23 27 0
-9 -23 -27 0
12 23 28 0
-12 -23 -28 0
15 23 29 0
-15 -23 -29 0
18 23 30 0
-18 -23 -30 0
21 23 31 0
-21 -23 -31 0
1 24 0
-1 -24 0
4 24 25 0
-4 -24 -25 0
7 24 26 0
-7 -24 -26 0
10 24 27 0
-10 -24 -27 0
13 24 28 0
-13 -24 -28 0
16 24 29 0
-16 -24 -29 0
19 24 30 0
-19 -24 -30 0
22 24 31 0
-22 -24 -31 0
2 24 25 0
-2 -24 -25 0
5 25 0
-5 -25 0
8 25 26 0
-8 -25 -26 0
11 25 27 0
-11 -25 -27 0
14 25 28 0
-14 -25 -28 0
17 25 29 0
-17 -25 -29 0
20 25 30 0
-20 -25 -30 0
23 25 31 0
-23 -25 -31 0
3 24 26 0
-3 -24 -26 0
6 25 26 0
-6 -25 -26 0
9 26 0
-9 -26 0
12 26 27 0
-12 -26 -27 0
15 26 28 0
-15 -26 -28 0
18 26 29 0
-18 -26 -29 0
21 26 30 0
-21 -26 -30 0
24 26 31 0
-24 -26 -31 0
1 23 27 0
-1 -23 -27 0
4 24 27 0
-4 -24 -27 0
7 25 27 0
-7 -25 -27 0
10 26 27 0
-10 -26 -27 0
13 27 0
-13 -27 0
16 27 28 0
-16 -27 -28 0
19 27 29 0
-19 -27 -29 0
22 27 30 0
-22 -27 -30 0
25 27 31 0
-25 -27 -31 0
2 23 28 0
-2 -23 -28 0
5 24 28 0
-5 -24 -28 0
8 25 28 0
-8 -25 -28 0
11 26 28 0
-11 -26 -28 0
14 27 28 0
-14 -27 -28 0
17 28 0
-17 -28 0
20 28 29 0
-20 -28 -29 0
23 28 30 0
-23 -28 -30 0
26 28 31 0
-26 -28 -31 0
3 23 29 0
-3 -23 -29 0
6 24 29 0
-6 -24 -29 0
9 25 29 0
-9 -25 -29 0
12 26 29 0
-12 -26 -29 0
15 27 29 0
-15 -27 -29 0
18 28 29 0
-18 -28 -29 0
21 29 0
-21 -29 0
24 29 30 0
-24 -29 -30 0
27 29 31 0
-27 -29 -31 0
1 22 30 0
-1 -22 -30 0
4 23 30 0
-4 -23 -30 0
7 24 30 0
-7 -24 -30 0
10 25 30 0
-10 -25 -30 0
13 26 30 0
-13 -26 -30 0
16 27 30 0
-16 -27 -30 0
19 28 30 0
-19 -28 -30 0
22 29 30 0
-22 -29 -30 0
25 30 0
-25 -30 0
28 30 31 0
-28 -30 -31 0
2 22 31 0
-2 -22 -31 0
5 23 31 0
-5 -23 -31 0
8 24 31 0
-8 -24 -31 0
11 25 31 0
-11 -25 -31 0
14 26 31 0
-14 -26 -31 0
17 27 31 0
-17 -27 -31 0
20 28 31 0
-20 -28 -31 0
23 29 31 0
-23 -29 -31 0
26 30 31 0
-26 -30 -31 0
29 31 0
-29 -31 0
